200
0 84 144 190 26 197 122 14 12 176 78 159 161 63 19 54 41 134 185 126 111 119 46 30 66 64 79 150 186 156 106 108 5 53 74 182 154 7 21 133 128 145 102 142 16 24 89 33 57 140 170 199 97 113 87 147 27 38 37 70 129 71 82 61 184 167 49 138 85 195 55 151 177 4 104 42 136 132 175 112 194 181 93 94 90 149 172 22 143 69 75 101 153 20 139 163 29 67 168 34 1 180 124 160 76 157 192 127 166 40 88 58 2 72 188 130 179 141 68 107 13 191 59 100 3 162 92 105 148 98 18 91 9 174 35 56 73 99 155 32 44 196 80 96 103 164 125 86 95 165 47 83 10 51 169 121 115 43 187 193 50 62 15 178 152 65 118 189 48 17 109 28 183 36 117 123 137 8 77 81 6 198 25 60 135 31 23 158 173 120 171 45 11 146 39 131 110 116 114 52 
